nNurses = 78;
nHours = 26;
minHours = 4;
maxHours = 17;
maxConsec = 6;
maxPresence = 14;
demand = [29, 29, 26, 23, 28, 29, 33, 38, 41, 43, 43, 44, 45, 40, 40, 43, 38, 40, 37, 32, 37, 41, 45, 43, 42, 37];
